(set-logic QF_S)
(declare-fun var0 () String)
(assert (RegexIn var0 (RegexConcat (RegexUnion (RegexUnion (Str2Reg "000") (Str2Reg "111")) (RegexUnion (Str2Reg "22") (Str2Reg "3"))) (RegexConcat (RegexPlus (RegexUnion (Str2Reg "4") (Str2Reg "55"))) (RegexConcat (RegexUnion (RegexPlus (Str2Reg "666")) (RegexPlus (Str2Reg "7"))) (RegexConcat (RegexUnion (RegexUnion (Str2Reg "888") (Str2Reg "99")) (RegexUnion (Str2Reg "aa") (Str2Reg "bb"))) (RegexConcat (RegexStar (RegexUnion (Str2Reg "ccc") (Str2Reg "d"))) (RegexConcat (RegexUnion (RegexStar (Str2Reg "ee")) (RegexStar (Str2Reg "fff"))) (RegexConcat (RegexUnion (RegexPlus (Str2Reg "ggg")) (RegexPlus (Str2Reg "hh"))) (RegexConcat (RegexPlus (RegexPlus (Str2Reg "ii"))) (RegexConcat (RegexPlus (RegexPlus (Str2Reg "jj"))) (RegexStar (RegexUnion (Str2Reg "kkk") (Str2Reg "l"))))))))))))))
(assert (<= 401 (Length var0)))
(check-sat)